c	Created in graph generator tool by Shahar Bardugo & Dorin Matzrafi
c
p	sp 5 20
c	graph contains 5 nodes and 20 arcs
c
a	1	2	16
a	2	1	17
a	1	3	18
a	1	4	14
a	1	5	14
a	2	3	10
a	2	4	14
a	2	5	9
a	3	1	2
a	3	2	15
a	3	4	16
a	3	5	3
a	4	2	12
a	4	3	20
a	4	5	17
a	5	4	2
a	4	1	11
a	5	1	16
a	5	2	7
a	5	3	10
